p tw 112 119
1 2
2 25
3 14
4 5
5 6
6 7
7 8
8 9
9 10
10 11
11 12
12 13
12 105
13 15
14 17
15 16
17 18
18 19
19 20
20 21
20 80
21 22
22 23
23 24
24 26
25 36
26 27
26 42
27 28
28 29
29 30
30 31
31 32
32 33
33 34
34 35
35 37
36 47
37 38
38 39
39 40
40 41
41 22
42 43
43 44
44 45
45 46
46 48
47 58
48 49
48 61
49 50
50 51
51 52
52 53
52 56
53 54
54 55
55 56
56 57
57 59
58 69
59 60
60 45
61 62
62 63
63 64
64 65
65 66
66 67
67 68
67 84
68 70
69 80
70 71
71 72
72 73
73 74
74 75
75 76
76 77
77 78
78 79
79 81
80 91
81 82
82 83
83 64
84 85
85 86
86 87
87 88
88 89
89 90
89 103
90 92
91 102
92 93
93 94
94 95
94 98
95 96
96 97
97 98
98 99
99 100
100 101
101 87
102 3
103 104
104 105
105 106
106 107
107 108
108 109
109 110
110 111
111 112
112 4
